&GLOBAL
  PRINT_LEVEL LOW
  PROJECT Hg2Cl2
  RUN_TYPE ENERGY
&END GLOBAL

&FORCE_EVAL
  &DFT
    CHARGE 0
    MULTIPLICITY 1
    &QS
      METHOD xTB
      &XTB
        &TBLITE
          METHOD GFN1
        &END TBLITE
      &END XTB
    &END QS
    &SCF
      MAX_SCF 100
      SCF_GUESS ATOMIC
      &OT ON
        MINIMIZER CG
        PRECONDITIONER FULL_SINGLE
      &END OT
    &END SCF
  &END DFT
  &SUBSYS
    &CELL
      ABC 15 15 15
      PERIODIC NONE
    &END CELL
    &COORD
      Hg      10.49952604       9.17700906      10.50000000
      Hg      10.50047396      11.82218607      10.50000000
      Cl      10.50004307       6.80917540      10.50000000
      Cl      10.50001456      14.19082460      10.50000000
    &END COORD
    &TOPOLOGY
      &CENTER_COORDINATES T
      &END CENTER_COORDINATES
    &END TOPOLOGY
  &END SUBSYS
&END FORCE_EVAL
