&GLOBAL
  PRINT_LEVEL MEDIUM
  PROJECT H2_gxtb_k311_force_stress
  RUN_TYPE DEBUG
&END GLOBAL

&DEBUG
  DEBUG_FORCES T
  DEBUG_STRESS_TENSOR T
  DX 0.0001
  STOP_ON_MISMATCH F
&END DEBUG

&FORCE_EVAL
  METHOD QUICKSTEP
  STRESS_TENSOR ANALYTICAL
  &DFT
    &KPOINTS
      FULL_GRID ON
      PARALLEL_GROUP_SIZE -1
      SCHEME MACDONALD 3 1 1 0.0 0.0 0.0
      SYMMETRY OFF
      WAVEFUNCTIONS COMPLEX
    &END KPOINTS
    &POISSON
      PERIODIC XYZ
      POISSON_SOLVER PERIODIC
    &END POISSON
    &QS
      EPS_DEFAULT 1.0E-12
      METHOD xTB
      &XTB
        GFN_TYPE TBLITE
        SCC_MIXER TBLITE
        &TBLITE
          ACCURACY 1.0
          METHOD GXTB
        &END TBLITE
      &END XTB
    &END QS
    &SCF
      EPS_SCF 1.0E-10
      MAX_SCF 200
      SCF_GUESS MOPAC
      &MIXING
        ALPHA 0.2
        METHOD DIRECT_P_MIXING
      &END MIXING
      &PRINT
        &RESTART OFF
        &END RESTART
      &END PRINT
    &END SCF
  &END DFT
  &SUBSYS
    &CELL
      A 4.100000 0.000000 0.000000
      B 0.350000 4.300000 0.000000
      C 0.200000 0.270000 4.600000
      PERIODIC XYZ
    &END CELL
    &COORD
      H 0.730000 0.910000 1.130000
      H 1.480000 1.120000 1.260000
    &END COORD
  &END SUBSYS
&END FORCE_EVAL
