&GLOBAL
  PRINT_LEVEL LOW
  PROJECT H2O_gxtb_kp_cp2k_density_mixer
  RUN_TYPE ENERGY
&END GLOBAL

&FORCE_EVAL
  METHOD QUICKSTEP
  &DFT
    &KPOINTS
      FULL_GRID TRUE
      KPOINT  0.13 0.07 0.11 0.4
      KPOINT -0.21 0.03 0.17 0.6
      SCHEME GENERAL
      SYMMETRY OFF
      WAVEFUNCTIONS COMPLEX
    &END KPOINTS
    &QS
      METHOD xTB
      &XTB
        GFN_TYPE TBLITE
        SCC_MIXER CP2K
        &TBLITE
          ACCURACY 1.0
          METHOD GXTB
        &END TBLITE
      &END XTB
    &END QS
    &SCF
      ! Isolate CP2K density-matrix mixing and exercise the P(k) synchronization.
      EPS_DIIS 0.0
      EPS_SCF 1.0E-7
      MAX_SCF 150
      SCF_GUESS MOPAC
      &MIXING
        ALPHA 0.2
        METHOD DIRECT_P_MIXING
      &END MIXING
    &END SCF
  &END DFT
  &SUBSYS
    &CELL
      ABC 10.0 10.0 10.0
      PERIODIC XYZ
    &END CELL
    &COORD
      O  5.000000  5.000000  5.000000
      H  5.758602  5.000000  5.504284
      H  4.241398  5.000000  5.504284
    &END COORD
  &END SUBSYS
&END FORCE_EVAL
