&GLOBAL
  PRINT_LEVEL MEDIUM
  PROJECT H2O_gxtb_force
  RUN_TYPE DEBUG
&END GLOBAL

&DEBUG
  DEBUG_FORCES T
  DEBUG_STRESS_TENSOR F
  DX 0.0001
  STOP_ON_MISMATCH F
&END DEBUG

&FORCE_EVAL
  &DFT
    &QS
      EPS_DEFAULT 1.0E-12
      METHOD xTB
      &XTB
        GFN_TYPE TBLITE
        &TBLITE
          ACCURACY 1.0
          METHOD GXTB
        &END TBLITE
      &END XTB
    &END QS
    &SCF
      EPS_SCF 1.0E-10
      MAX_SCF 200
      SCF_GUESS MOPAC
      &MIXING
        ALPHA 0.2
        METHOD DIRECT_P_MIXING
      &END MIXING
      &PRINT
        &RESTART OFF
        &END RESTART
      &END PRINT
    &END SCF
  &END DFT
  &SUBSYS
    &CELL
      ABC 20.0 20.0 20.0
      PERIODIC NONE
    &END CELL
    &COORD
      O  0.000000  0.000000  0.000000
      H  0.758602  0.000000  0.504284
      H -0.758602  0.000000  0.504284
    &END COORD
  &END SUBSYS
&END FORCE_EVAL
