&GLOBAL
  PRINT_LEVEL LOW
  PROJECT shell_ch4_mp2_ri
  RUN_TYPE ENERGY
&END GLOBAL

&FORCE_EVAL
  METHOD Quickstep
  &DFT
    BASIS_SET_FILE_NAME HFX_BASIS
    POTENTIAL_FILE_NAME GTH_POTENTIALS
    &MGRID
      CUTOFF 300
      REL_CUTOFF 40
    &END MGRID
&POISSON
      PERIODIC NONE
      POISSON_SOLVER MT
    &END POISSON
    &QS
      EPS_DEFAULT 1.0E-12
      METHOD GPW
    &END QS
    &SCF
      MAX_SCF 50
      EPS_SCF 1.0E-5
      SCF_GUESS ATOMIC
      IGNORE_CONVERGENCE_FAILURE
    &END SCF
    &XC
      &HF
        FRACTION 1.0
        &SCREENING
          EPS_SCHWARZ 1.0E-6
        &END SCREENING
      &END HF
      &WF_CORRELATION
        MEMORY 50
        &MP2
          METHOD MP2_GPW
        &END MP2
      &END WF_CORRELATION
      &XC_FUNCTIONAL NONE
      &END XC_FUNCTIONAL
    &END XC
  &END DFT
  &SUBSYS
    &CELL
      ABC 12.0 12.0 12.0
      PERIODIC NONE
    &END CELL
    &COORD
      C    0.000000    0.000000    0.000000
      H    0.629118    0.629118    0.629118
      H   -0.629118   -0.629118    0.629118
      H   -0.629118    0.629118   -0.629118
      H    0.629118   -0.629118   -0.629118
    &END COORD
    &KIND C
      BASIS_SET DZVP-GTH
      BASIS_SET RI_AUX RI_DZVP-GTH
      POTENTIAL GTH-PBE-q4
    &END KIND
    &KIND H
      BASIS_SET DZVP-GTH
      BASIS_SET RI_AUX RI_DZVP-GTH
      POTENTIAL GTH-PBE-q1
    &END KIND
  &END SUBSYS
&END FORCE_EVAL