&GLOBAL
  PRINT_LEVEL LOW
  PROJECT shell_dft
  RUN_TYPE ENERGY
&END GLOBAL

&FORCE_EVAL
  METHOD Quickstep
  &DFT
    BASIS_SET_FILE_NAME HFX_BASIS
    POTENTIAL_FILE_NAME POTENTIAL
    &MGRID
      CUTOFF 200
      REL_CUTOFF 30
    &END MGRID
    &QS
      METHOD GPW
      EPS_DEFAULT 1.0E-10
    &END QS
    &SCF
      MAX_SCF 50
      EPS_SCF 1.0E-6
      SCF_GUESS ATOMIC
    &END SCF
    &XC
      &XC_FUNCTIONAL PBE
      &END XC_FUNCTIONAL
    &END XC
  &END DFT
  &SUBSYS
    &CELL
      ABC 10.0 10.0 10.0
      PERIODIC NONE
    &END CELL
    &COORD
      O    0.000000    0.000000    0.000000
      H    0.000000    0.757154    0.586295
      H    0.000000   -0.757154    0.586295
    &END COORD
    &KIND O
      BASIS_SET DZVP-GTH
      POTENTIAL GTH-PBE-q6
    &END KIND
    &KIND H
      BASIS_SET DZVP-GTH
      POTENTIAL GTH-PBE-q1
    &END KIND
  &END SUBSYS
&END FORCE_EVAL